qbf_easy_train/easy_2066_SAT.qdimacs
p cnf 20 44
a 10 11 6 0
e 1 2 3 4 5 7 8 9 12 13 14 15 16 17 18 19 20 0
-3 -1 0
-3 -2 0
1 2 3 0
-5 4 0
-5 -2 0
-4 2 5 0
-6 3 0
-6 5 0
-3 -5 6 0
-8 -7 0
-8 4 0
7 -4 8 0
8 -9 -10 0
-8 9 -10 0
8 9 10 0
-8 -9 10 0
-13 11 0
-13 12 0
-11 -12 13 0
-14 -12 0
-14 1 0
12 -1 14 0
-13 -14 -15 0
13 14 -15 0
-13 14 15 0
13 -14 15 0
-16 10 0
-16 -15 0
-10 15 16 0
18 -17 0
18 8 0
17 -8 -18 0
19 -16 0
19 -18 0
16 18 -19 0
-6 19 -20 0
6 -19 -20 0
-6 -19 20 0
6 19 20 0
-12 -11 -2 -4 0
-8 -19 -11 20 0
20 -15 -6 0
-6 18 -3 0
20 0
