sat_easy_train/easy_2066_SAT.dimacs
p cnf 100 322
1 -2 -3 0
-1 2 -3 0
1 2 3 0
-1 -2 3 0
4 5 -6 0
-4 -5 -6 0
4 -5 6 0
-4 5 6 0
6 -7 -8 0
-6 7 -8 0
6 7 8 0
-6 -7 8 0
3 -8 -9 0
-3 8 -9 0
3 8 9 0
-3 -8 9 0
12 -10 0
12 11 0
10 -11 -12 0
-1 12 -13 0
1 -12 -13 0
-1 -12 13 0
1 12 13 0
14 9 0
14 -13 0
-9 13 -14 0
18 -16 0
18 -17 0
16 17 -18 0
-19 -15 0
-19 18 0
15 -18 19 0
14 19 -20 0
-14 -19 -20 0
14 -19 20 0
-14 19 20 0
-23 22 0
-23 -10 0
-22 10 23 0
-21 -23 -24 0
21 23 -24 0
-21 23 24 0
21 -23 24 0
-25 -24 0
-25 15 0
24 -15 25 0
-5 25 -26 0
5 -25 -26 0
-5 -25 26 0
5 25 26 0
-27 -15 0
-27 -26 0
15 26 27 0
-27 7 -28 0
27 -7 -28 0
-27 -7 28 0
27 7 28 0
-29 30 -31 0
29 -30 -31 0
-29 -30 31 0
29 30 31 0
32 23 0
32 10 0
-23 -10 -32 0
32 -11 -33 0
-32 11 -33 0
32 11 33 0
-32 -11 33 0
34 31 0
34 -33 0
-31 33 -34 0
-35 -2 0
-35 29 0
2 -29 35 0
35 1 -36 0
-35 -1 -36 0
35 -1 36 0
-35 1 36 0
-34 36 -37 0
34 -36 -37 0
-34 -36 37 0
34 36 37 0
38 -28 0
38 -37 0
28 37 -38 0
-40 7 0
-40 10 0
-7 -10 40 0
41 39 0
41 40 0
-39 -40 -41 0
43 -40 0
43 -42 0
40 42 -43 0
43 -10 -44 0
-43 10 -44 0
43 10 44 0
-43 -10 44 0
-41 -44 -45 0
41 44 -45 0
-41 44 45 0
41 -44 45 0
38 45 -46 0
-38 -45 -46 0
38 -45 46 0
-38 45 46 0
47 2 0
47 30 0
-2 -30 -47 0
-48 47 0
-48 -24 0
-47 24 48 0
-49 36 0
-49 -48 0
-36 48 49 0
50 -4 0
50 31 0
4 -31 -50 0
-51 -50 0
-51 -50 0
50 51 0
32 7 -52 0
-32 -7 -52 0
32 -7 52 0
-32 7 52 0
53 -52 0
53 -1 0
52 1 -53 0
-47 -53 -54 0
47 53 -54 0
-47 53 54 0
47 -53 54 0
55 -51 0
55 -54 0
51 54 -55 0
-56 -55 0
-56 -30 0
55 30 56 0
57 49 0
57 56 0
-49 -56 -57 0
-58 31 0
-58 33 0
-31 -33 58 0
59 -2 0
59 -58 0
2 58 -59 0
-60 29 0
-60 -59 0
-29 59 60 0
6 60 -61 0
-6 -60 -61 0
6 -60 61 0
-6 60 61 0
62 -57 0
62 -61 0
57 61 -62 0
-63 46 0
-63 -62 0
-46 62 63 0
-64 -24 0
-64 -21 0
24 21 64 0
-65 63 0
-65 64 0
-63 -64 65 0
66 -47 0
66 -43 0
47 43 -66 0
67 -32 0
67 -50 0
32 50 -67 0
68 -33 0
68 -2 0
33 2 -68 0
-69 -67 0
-69 -68 0
67 68 69 0
70 66 0
70 69 0
-66 -69 -70 0
-71 -24 0
-71 -47 0
24 47 71 0
27 71 -72 0
-27 -71 -72 0
27 -71 72 0
-27 71 72 0
-40 5 -73 0
40 -5 -73 0
-40 -5 73 0
40 5 73 0
-74 73 0
-74 -11 0
-73 11 74 0
-75 50 0
-75 22 0
-50 -22 75 0
76 -74 0
76 75 0
74 -75 -76 0
77 -72 0
77 -76 0
72 76 -77 0
29 -48 -78 0
-29 48 -78 0
29 48 78 0
-29 -48 78 0
79 -18 0
79 -11 0
18 11 -79 0
-80 78 0
-80 -79 0
-78 79 80 0
1 -27 -81 0
-1 27 -81 0
1 27 81 0
-1 -27 81 0
80 81 -82 0
-80 -81 -82 0
80 -81 82 0
-80 81 82 0
83 -21 0
83 51 0
21 -51 -83 0
-84 18 0
-84 -52 0
-18 52 84 0
85 -47 0
85 1 0
47 -1 -85 0
-86 -35 0
-86 29 0
35 -29 86 0
-87 52 0
-87 -86 0
-52 86 87 0
85 87 -88 0
-85 -87 -88 0
85 -87 88 0
-85 87 88 0
-89 84 0
-89 88 0
-84 -88 89 0
90 -83 0
90 89 0
83 -89 -90 0
91 -82 0
91 -90 0
82 90 -91 0
-92 -42 0
-92 7 0
42 -7 92 0
93 91 0
93 92 0
-91 -92 -93 0
-94 77 0
-94 -93 0
-77 93 94 0
95 35 0
95 -21 0
-35 21 -95 0
96 -7 0
96 95 0
7 -95 -96 0
97 -94 0
97 -96 0
94 96 -97 0
98 -70 0
98 -97 0
70 97 -98 0
-65 98 -99 0
65 -98 -99 0
-65 -98 99 0
65 98 99 0
20 99 -100 0
-20 -99 -100 0
20 -99 100 0
-20 99 100 0
35 -83 81 30 59 53 0
60 57 34 -76 21 -82 0
19 -64 80 0
-31 40 0
72 95 9 0
87 24 19 45 0
-96 -56 -86 0
45 -36 -74 2 65 -37 0
-59 1 -17 3 0
10 76 -88 51 -73 -22 0
-100 70 0
30 58 27 86 51 0
54 -94 -71 0
51 12 -38 -13 34 -85 0
-96 63 13 -41 43 0
93 80 -36 0
79 -24 5 -67 0
12 -29 5 0
3 23 0
-38 81 91 66 94 0
77 -58 -3 -33 0
61 -57 -83 -62 0
63 -46 5 37 -70 0
-11 76 -28 0
-92 -85 0
-88 -23 -56 -69 -99 0
68 -21 0
-43 -3 8 -86 47 -71 0
-78 86 0
80 48 0
-87 4 33 0
76 -46 -84 -26 98 28 0
-82 4 -91 0
-15 12 59 0
27 -20 -12 -33 52 2 0
-58 40 -31 -5 77 0
-69 92 0
90 89 0
-15 31 11 35 -95 98 0
99 -38 -46 12 6 -62 0
21 -94 -11 0
96 65 55 0
100 0
